% %%%%%%%%%%%%%%%%%%%%%%%%%%%%%%%%%%%%%%%%%%%%%%%%%%%%%%%%
% PADDING
padding_value=[0,-1];
padding_name_value=["paddingUnknowValue","paddingImpossibleValue"];
padding_set=[{0},{-1}];
padding_name_set=["paddingUnknowSet","paddingImpossibleSet"];

% DATA
% TIMES SCALES
nr_weeks=12;
nr_days_per_week=5;
nr_slots_per_day=1440;

% COURSES
nr_courses=9;
nr_parts=24;
course_parts=[{1,2},{3,4,5,6},{7,8,9},{10,11},{12,13},{14,15,16},{17,18},{19,20,21},{22,23,24}];
nr_classes=45;
part_classes=[{1,2,3},{4},{5},{6,7},{8,9,10},{11,12,13},{14},{15,16,17},{18,19,20},{21},{22},{23},{24,25},{26},{27},{28,29,30},{31},{32,33},{34},{35,36},{37,38,39},{40},{41,42},{43,44,45}];
nr_sessions=241;
max_part_sessions=12;
part_nr_sessions=[8,1,8,9,7,1,12,8,1,3,8,5,4,2,2,10,4,7,7,4,4,6,3,4];

% RESOURCES
nr_equipments=0;
nr_rooms=8;
nr_teachers=12;
nr_students=67;

% COURSE-RESOURCE MAPS
nr_part_rooms=63;
part_rooms=[{3,4,5},{1,2},{1,2},{3,4,5},{6,7,8},{6,7,8},{1,2},{6,7,8},{6,7,8},{1,2},{6,7,8},{6,7,8},{6,7,8},{1,2},{1,2},{6,7,7},{1,2},{6,7,8},{1,2},{3,4,5},{6,7,8},{1,2},{6,7,8},{6,7,8}];
nr_part_teachers=32;
part_teachers=[{1},{1},{2},{2},{2,3},{2,3,4},{5},{5,6},{5,6,7},{10},{10},{9},{9},{10},{8},{8},{7},{7},{11},{11},{7,11,12},{10},{10},{10}];
part_dailyslots=[{480,530,570,620,660,710,750,800,840,890,930,980,1020},{480,530,570,620,660,710,750,800,840,890,930,980,1020},{480,570,660,750,840,930,1020,1110},{480,570,660,750,840,930,1020,1110},{480,570,750,840,930,1020},{480,570,750,840,930,1020},{480,570,660,750,840,930,1020,1110},{480,570,750,840,930,1020},{480,570,750,840,930,1020},{480,570,750,840,930,1020},{480,570,750,840,930,1020},{480,570,750,840,930,1020},{480,570,750,840,930,1020},{480,570,750,840,930,1020},{480,570,750,840,930,1020},{480,570,660,750,840,930,1020,1110},{480,570,660,750,840,930,1020,1110},{480,570,750,840,930,1020},{480,570,660,750,840,930,1020,1110},{480,570,660,750,840,930,1020,1110},{480,570,750,840,930,1020},{480,570,660,750,840,930,1020,1110},{480,570,660,750,840,930,1020,1110},{480,570,750,840,930,1020}];
part_days=[{1,2,3,4,5},{1,2,3,4,5},{1,2,3,4,5},{1,2,3,4,5},{1,2,3,4,5},{1,2,3,4,5},{1,2,3,4,5},{1,2,3,4,5},{1,2,3,4,5},{1,2,3,4,5},{1,2,3,4,5},{1,2,3,4,5},{1,2,3,4,5},{1,2,3,4,5},{1,2,3,4,5},{1,2,3,4,5},{1,2,3,4,5},{1,2,3,4,5},{1,2,3,4,5},{1,2,3,4,5},{1,2,3,4,5},{1,2,3,4,5},{1,2,3,4,5},{1,2,3,4,5}];
part_weeks=[{1,2,3,4,5,6,7,8,9,10,11,12},{1,2,3,4,5,6,7,8,9,10,11,12},{1,2,3,4,5,6,7,8,9,10,11,12},{1,2,3,4,5,6,7,8,9,10,11,12},{1,2,3,4,5,6,7,8,9,10,11,12},{1,2,3,4,5,6,7,8,9,10,11,12},{1,2,3,4,5,6,7,8,9,10,11,12},{1,2,3,4,5,6,7,8,9,10,11,12},{1,2,3,4,5,6,7,8,9,10,11,12},{1,2,3,4,5,6,7,8,9,10,11,12},{1,2,3,4,5,6,7,8,9,10,11,12},{1,2,3,4,5,6,7,8,9,10,11,12},{1,2,3,4,5,6,7,8,9,10,11,12},{1,2,3,4,5,6,7,8,9,10,11,12},{1,2,3,4,5,6,7,8,9,10,11,12},{1,2,3,4,5,6,7,8,9,10,11,12},{1,2,3,4,5,6,7,8,9,10,11,12},{1,2,3,4,5,6,7,8,9,10,11,12},{1,2,3,4,5,6,7,8,9,10,11,12},{1,2,3,4,5,6,7,8,9,10,11,12},{1,2,3,4,5,6,7,8,9,10,11,12},{1,2,3,4,5,6,7,8,9,10,11,12},{1,2,3,4,5,6,7,8,9,10,11,12},{1,2,3,4,5,6,7,8,9,10,11,12}];

% COURSE PROPERTIES
part_session_length=[120,120,80,80,170,170,80,170,170,170,170,170,170,170,170,80,80,170,80,80,170,80,80,170];

% RESOURCE PROPERTIES
max_equipment_count=0;
max_class_maxheadcount=80;
max_teacher_session=1;
max_teacher_sessions=30;
equipment_count=[];
max_room_capacity=286;
room_capacity=[90,286,46,46,28,20,42,38];

% COURSE-RESOURCE PROPERTIES
part_room_use=[single,single,single,single,single,multiple,single,single,single,single,single,single,single,single,single,single,single,single,single,single,single,single,single,single];
nr_part_room_mandatory=0;
part_room_mandatory=array2d(1..nr_part_room_mandatory,1..2,[]);
part_teacher_sessions_count=array2d(1..nr_parts,1..nr_teachers,[24,0,0,0,0,0,0,0,0,0,0,0,1,0,0,0,0,0,0,0,0,0,0,0,0,8,0,0,0,0,0,0,0,0,0,0,0,18,0,0,0,0,0,0,0,0,0,0,0,14,7,0,0,0,0,0,0,0,0,0,0,1,1,1,0,0,0,0,0,0,0,0,0,0,0,0,12,0,0,0,0,0,0,0,0,0,0,0,16,8,0,0,0,0,0,0,0,0,0,0,1,1,1,0,0,0,0,0,0,0,0,0,0,0,0,0,0,3,0,0,0,0,0,0,0,0,0,0,0,8,0,0,0,0,0,0,0,0,0,0,5,0,0,0,0,0,0,0,0,0,0,0,8,0,0,0,0,0,0,0,0,0,0,0,0,2,0,0,0,0,0,0,0,0,0,2,0,0,0,0,0,0,0,0,0,0,0,30,0,0,0,0,0,0,0,0,0,0,4,0,0,0,0,0,0,0,0,0,0,0,14,0,0,0,0,0,0,0,0,0,0,0,0,0,0,0,7,0,0,0,0,0,0,0,0,0,0,0,8,0,0,0,0,0,0,0,4,0,0,0,4,4,0,0,0,0,0,0,0,0,0,6,0,0,0,0,0,0,0,0,0,0,0,6,0,0,0,0,0,0,0,0,0,0,0,12,0,0]);
part_session_teacher_count=[1,1,1,1,1,1,1,1,1,1,1,1,1,1,1,1,1,1,1,1,1,1,1,1];
class_maxheadcount=[30,30,30,20,80,40,40,20,20,20,20,20,20,80,25,28,25,40,40,40,80,40,40,20,20,80,40,20,20,20,80,20,20,80,40,40,20,20,25,80,40,40,20,20,20];
class_parent=[0,0,0,0,0,5,5,6,7,6,8,9,10,0,14,14,14,15,16,17,0,21,0,23,23,0,26,27,27,27,0,31,31,0,34,34,35,36,35,0,40,40,41,42,41];

% %%%%%%%%%%%%%%%%%%%%%%%%%%%%%%%%%%%%%%%%%%%%
% STUDENTS
student_courses=[{1,2,3,5,6,8,9},{1,2,3,6,7,8,9},{1,2,3,5,6,8,9},{1,2,3,5,7,8,9},{1,2,3,5,7,8,9},{1,2,3,5,7,8,9},{1,2,3,4,6,8,9},{1,2,3,6,7,8,9},{1,2,3,5,7,8,9},{1,2,3,4,6,8,9},{1,2,3,5,7,8,9},{1,2,3,4,6,8,9},{1,2,3,5,7,8,9},{1,2,3,5,6,8,9},{1,2,3,5,7,8,9},{1,2,3,5,7,8,9},{1,2,3,4,6,8,9},{1,2,3,5,7,8,9},{1,2,3,5,7,8,9},{1,2,3,5,7,8,9},{1,2,3,6,7,8,9},{1,2,3,5,6,8,9},{1,2,3,5,7,8,9},{1,2,3,5,6,8,9},{1,2,3,6,7,8,9},{1,2,3,5,7,8,9},{1,2,3,6,7,8,9},{1,2,3,6,7,8,9},{1,2,3,5,6,8,9},{1,2,3,4,6,8,9},{1,2,3,4,6,8,9},{1,2,3,5,6,8,9},{1,2,3,6,7,8,9},{1,2,3,5,7,8,9},{1,2,3,5,6,8,9},{1,2,3,5,7,8,9},{1,2,3,5,7,8,9},{1,2,3,6,7,8,9},{1,2,3,5,6,8,9},{1,2,3,4,6,8,9},{1,2,3,6,7,8,9},{1,2,3,4,6,8,9},{1,2,3,5,7,8,9},{1,2,3,6,7,8,9},{1,2,3,5,6,8,9},{1,2,3,5,6,8,9},{1,2,3,6,7,8,9},{1,2,3,4,6,8,9},{1,2,3,5,6,8,9},{1,2,3,5,6,8,9},{1,2,3,6,7,8,9},{1,2,3,6,7,8,9},{1,2,3,5,7,8,9},{1,2,3,4,6,8,9},{1,2,3,6,7,8,9},{1,2,3,5,6,8,9},{1,2,3,6,7,8,9},{1,2,3,6,7,8,9},{1,2,3,5,6,8,9},{1,2,3,6,7,8,9},{1,2,3,5,6,8,9},{1,2,3,5,6,8,9},{1,2,3,5,6,8,9},{1,2,3,5,6,8,9},{1,2,3,5,6,8,9},{1,2,3,5,6,8,9},{1,2,3,5,6,8,9}];

% %%%%%%%%%%%%%%%%%%%%%%%%%%%%%%%%%%%%%%%%%%%%
% NAMINGS
equipment_name=[];
room_name=["AMPHI-A","AMPHI-B","L201","L202","L206","H001","H002","H003"];
teacher_name=["Teacher 1","Teacher 2","Teacher 3","Teacher 4","Teacher 5","Teacher 6","Teacher 7","Teacher 8","Teacher 9","Teacher 10","Teacher 11","Teacher 12"];
student_name=["student 1","student 2","student 3","student 4","student 5","student 6","student 7","student 8","student 9","student 10","student 11","student 12","student 13","student 14","student 15","student 16","student 17","student 18","student 19","student 20","student 21","student 22","student 23","student 24","student 25","student 26","student 27","student 28","student 29","student 30","student 31","student 32","student 33","student 34","student 35","student 36","student 37","student 38","student 39","student 40","student 41","student 42","student 43","student 44","student 45","student 46","student 47","student 48","student 49","student 50","student 51","student 52","student 53","student 54","student 55","student 56","student 57","student 58","student 59","student 60","student 61","student 62","student 63","student 64","student 65","student 66","student 67"];
course_name=["English","Databases-part2","Web-Development","CGI","Python-data-analysis","AI-algorithms","Qt","Functional-programming","Logic-programming"];
part_name=["English-Les","English-Eval","Databases-part2-Lec","Databases-part2-Tut","Databases-part2-Lab","Databases-part2-LabEval","Web-Development-Lec","Web-Development-Lab","Web-Development-LabEval","CGI-Lec","CGI-Lab","Python-data-analysis-Les","Python-data-analysis-Lab","AI-algorithms-Lec","AI-algorithms-Tut","AI-algorithms-Lab","Qt-Lec","Qt-Lab","Functional-programming-Lec","Functional-programming-Tut","Functional-programming-Lab","Logic-programming-Lec","Logic-programming-Tut","Logic-programming-Lab"];
class_name=["English-Les-1","English-Les-2","English-Les-3","English-Eval-1","Databases-part2-Lec-1","Databases-part2-Tut-1","Databases-part2-Tut-2","Databases-part2-Lab-1","Databases-part2-Lab-2","Databases-part2-Lab-3","Databases-part2-LabEval-1","Databases-part2-LabEval-2","Databases-part2-LabEval-3","Web-Development-Lec-1","Web-Development-Lab-1","Web-Development-Lab-2","Web-Development-Lab-3","Web-Development-LabEval-1","Web-Development-LabEval-2","Web-Development-LabEval-3","CGI-Lec-1","CGI-Lab-1","Python-data-analysis-Les-1","Python-data-analysis-Lab-1","Python-data-analysis-Lab-2","AI-algorithms-Lec-1","AI-algorithms-Tut-1","AI-algorithms-Lab-1","AI-algorithms-Lab-2","AI-algorithms-Lab-3","Qt-Lec-1","Qt-Lab-1","Qt-Lab-2","Functional-programming-Lec-1","Functional-programming-Tut-1","Functional-programming-Tut-2","Functional-programming-Lab-1","Functional-programming-Lab-2","Functional-programming-Lab-3","Logic-programming-Lec-1","Logic-programming-Tut-1","Logic-programming-Tut-2","Logic-programming-Lab-1","Logic-programming-Lab-2","Logic-programming-Lab-3"];

% LABELINGS
nr_labels=13;
label_name=["BUILDING-A","BUILDING-L","BUILDING-H","ENGLISH","COMPUTER-SCIENCES-DEPT","LESSON","EVAL","LECTURE","TUTORIAL","LABORATORY","OPT","BACHELOR","COMPUTER-SCIENCES"];
room_label=[{1},{1},{2},{2},{2},{3},{3},{3}];
teacher_label=[{4},{5},{5},{5},{5},{5},{5},{5},{5},{5},{5},{5}];
student_label=[{12,13},{12,13},{12,13},{12,13},{12,13},{12,13},{12,13},{12,13},{12,13},{12,13},{12,13},{12,13},{12,13},{12,13},{12,13},{12,13},{12,13},{12,13},{12,13},{12,13},{12,13},{12,13},{12,13},{12,13},{12,13},{12,13},{12,13},{12,13},{12,13},{12,13},{12,13},{12,13},{12,13},{12,13},{12,13},{12,13},{12,13},{12,13},{12,13},{12,13},{12,13},{12,13},{12,13},{12,13},{12,13},{12,13},{12,13},{12,13},{12,13},{12,13},{12,13},{12,13},{12,13},{12,13},{12,13},{12,13},{12,13},{12,13},{12,13},{12,13},{12,13},{12,13},{12,13},{12,13},{12,13},{12,13},{12,13}];
course_label=[{},{},{},{11},{11},{11},{11},{},{}];
part_label=[{6},{7},{8},{9},{10},{7,10},{8},{10},{7,10},{8},{10},{6},{10},{8},{9},{10},{8},{10},{8},{9},{10},{8},{9},{10}];

% %%%%%%%%%%%%%%%%%%%%%%%%%%%%%%%%%%%%%%%%%%%%
% RULES
nr_rules=47;

% RULES SCOPES
nr_scopes=65;
rule_scopes=[{1},{2,3},{4},{5},{6},{7},{8},{9},{10},{11,12},{13,14},{15,16},{17,18},{19,20},{21},{22},{23},{24},{25},{26},{27,28},{29},{30},{31},{32,33,34},{35,36},{37},{38},{39},{40},{41,42},{43},{44,45},{46,47},{48},{49,50},{51},{52},{53},{54},{55},{56,57},{58,59},{60},{61},{62,63},{64,65}];

% SCOPES TYPES, MASKS AND FILTERS
scope_type=[class,class,class,part,class,class,class,class,part,part,session,session,session,session,session,session,session,session,session,session,class,class,part,class,class,part,session,session,class,class,part,class,class,class,session,session,class,class,course,class,session,session,class,session,session,session,session,class,session,session,class,class,part,class,class,session,session,session,session,class,class,session,session,session,session];
mask_length=12;
scope_mask=array2d(1..nr_scopes,1..mask_length,[0,0,0,0,0,0,0,0,0,0,0,0,8,0,0,0,0,0,0,0,0,0,0,0,1,0,0,0,0,0,0,0,0,0,0,0,1,0,0,0,0,0,0,0,0,0,0,0,0,0,0,0,0,0,0,0,0,0,0,0,0,0,0,0,0,0,0,0,0,0,0,0,1,3,4,5,6,7,8,0,0,0,0,0,0,0,0,0,0,0,0,0,0,0,0,0,1,0,0,0,0,0,0,0,0,0,0,0,1,0,0,0,0,0,0,0,0,0,0,0,2,0,0,0,0,0,0,0,0,0,0,0,1,0,0,0,0,0,0,0,0,0,0,0,1,0,0,0,0,0,0,0,0,0,0,0,1,0,0,0,0,0,0,0,0,0,0,0,8,0,0,0,0,0,0,0,0,0,0,0,1,0,0,0,0,0,0,0,0,0,0,0,9,0,0,0,0,0,0,0,0,0,0,0,1,0,0,0,0,0,0,0,0,0,0,0,7,0,0,0,0,0,0,0,0,0,0,0,1,0,0,0,0,0,0,0,0,0,0,0,0,0,0,0,0,0,0,0,0,0,0,0,0,0,0,0,0,0,0,0,0,0,0,0,0,0,0,0,0,0,0,0,0,0,0,0,1,4,5,6,7,8,9,10,11,12,0,0,0,0,0,0,0,0,0,0,0,0,0,0,1,0,0,0,0,0,0,0,0,0,0,0,3,0,0,0,0,0,0,0,0,0,0,0,1,0,0,0,0,0,0,0,0,0,0,0,0,0,0,0,0,0,0,0,0,0,0,0,0,0,0,0,0,0,0,0,0,0,0,0,0,0,0,0,0,0,0,0,0,0,0,0,5,0,0,0,0,0,0,0,0,0,0,0,1,0,0,0,0,0,0,0,0,0,0,0,6,0,0,0,0,0,0,0,0,0,0,0,1,0,0,0,0,0,0,0,0,0,0,0,1,0,0,0,0,0,0,0,0,0,0,0,0,0,0,0,0,0,0,0,0,0,0,0,0,0,0,0,0,0,0,0,0,0,0,0,0,0,0,0,0,0,0,0,0,0,0,0,0,0,0,0,0,0,0,0,0,0,0,0,5,0,0,0,0,0,0,0,0,0,0,0,1,0,0,0,0,0,0,0,0,0,0,0,0,0,0,0,0,0,0,0,0,0,0,0,2,0,0,0,0,0,0,0,0,0,0,0,1,0,0,0,0,0,0,0,0,0,0,0,2,0,0,0,0,0,0,0,0,0,0,0,1,0,0,0,0,0,0,0,0,0,0,0,0,0,0,0,0,0,0,0,0,0,0,0,4,0,0,0,0,0,0,0,0,0,0,0,1,0,0,0,0,0,0,0,0,0,0,0,0,0,0,0,0,0,0,0,0,0,0,0,0,0,0,0,0,0,0,0,0,0,0,0,1,0,0,0,0,0,0,0,0,0,0,0,1,3,4,5,6,7,0,0,0,0,0,0,0,0,0,0,0,0,0,0,0,0,0,0,3,0,0,0,0,0,0,0,0,0,0,0,1,0,0,0,0,0,0,0,0,0,0,0,4,0,0,0,0,0,0,0,0,0,0,0,1,0,0,0,0,0,0,0,0,0,0,0,1,4,5,6,0,0,0,0,0,0,0,0,0,0,0,0,0,0,0,0,0,0,0,0,6,0,0,0,0,0,0,0,0,0,0,0,1,0,0,0,0,0,0,0,0,0,0,0,1,0,0,0,0,0,0,0,0,0,0,0,1,0,0,0,0,0,0,0,0,0,0,0]);
nr_filters=73;
scope_filters=[{1},{2},{3},{4},{5},{6},{7},{8},{9},{10},{11},{12},{13},{14},{15},{16},{17},{18},{19},{20},{21},{22},{23,24},{25},{26},{27},{28},{29},{30,31},{32},{33,34},{35},{36},{37},{38},{39},{40},{41},{42,43},{44,45},{46},{47},{48,49},{50},{51},{52},{53},{54,55},{56},{57},{58},{59},{60,61},{62},{63},{64},{65},{66},{67},{68},{69},{70},{71},{72},{73}];
filter_type=[part,part,part,part,course,part,part,part,part,part,part,part,part,part,part,part,part,part,part,part,course,course,course,part,part,part,part,part,part,course,part,course,course,part,part,part,part,part,part,course,course,course,part,course,part,part,part,course,part,part,part,part,part,course,part,part,part,course,course,course,part,part,part,part,part,part,part,part,part,part,part,part,part];
filter_elements=[{1},{1},{2},{1},{1},{1},{3},{4,5},{4},{5},{3},{4},{4},{5},{3},{6},{4},{6},{5},{6},{2},{2},{2},{2,6,9},{7},{8},{8},{7},{8},{3},{1,3,4,5,7,8,10,11,12,13,14,15,16,17,18,19,20,21,22,23,24},{3},{3},{2,6,9},{8},{9},{8},{7},{8},{4,5,6,7},{4,5,6,7},{4},{3,5,6,7,8,9,10,11,13,14,16,17,18,19,21,22,24},{5},{1,5,6,8,9,11,12,13,16,18,21,24},{12},{13},{6},{5,6,8,9,11,13,16,18,21,24},{14},{15},{15},{16},{7},{5,6,8,9,11,13,16,18,21,24},{17},{18},{8,9},{8,9},{8,9},{4,5,6,8,9,11,13,15,16,18,20,21,23,24},{19},{20,21},{19},{20},{20},{21},{22},{23,24},{22},{23},{23},{24}];

% RULES CONSTRAINTS
rule_constraint=[weekly,sequenced,same_week,same_teachers,same_rooms,weekly,weekly,same_week,same_week,sequenced,sequenced,sequenced,sequenced,sequenced,same_teachers,same_rooms,same_slots,weekly,weekly,same_week,sequenced,same_rooms,same_teachers,same_slots,sequenced,sequenced,same_teachers,same_rooms,weekly,weekly,sequenced,weekly,sequenced,sequenced,weekly,sequenced,same_teachers,same_rooms,same_week,weekly,weekly,sequenced,sequenced,weekly,weekly,sequenced,sequenced];
constraint_hardness=[hard,hard,hard,hard,hard,hard,hard,hard,hard,hard,hard,hard,hard,hard,hard,hard,hard,hard,hard,hard,hard,hard,hard,hard,hard,hard,hard,hard,hard,hard,hard,hard,hard,hard,hard,hard,hard,hard,hard,hard,hard,hard,hard,hard,hard,hard,hard];

% CONSTRAINTS PARAMETERS
nr_parameters=0;
constraint_parameters=[{},{},{},{},{},{},{},{},{},{},{},{},{},{},{},{},{},{},{},{},{},{},{},{},{},{},{},{},{},{},{},{},{},{},{},{},{},{},{},{},{},{},{},{},{},{},{}];

% PARAMETERS
parameter_name=[];
parameter_type=[];
max_parameter_size=0;
parameter_value=array2d(1..nr_parameters,1..max_parameter_size,[]);

% %%%%%%%%%%%%%%%%%%%%%%%%%%%%%%%%%%%%%%%%%%%%
% %%%%%%%%SOLUTION

% GROUPS
nr_groups=4;
max_group_headcount=22;
group_headcount=[18,22,10,17];
group_name=["1-Tut1-Lab1-pq","2-Tut1-Lab3-ps","3-Tut2-Lab2-is","4-Tut2-Lab2-qs"];
group_students=[{4,5,6,9,11,13,15,16,18,19,20,23,26,34,36,37,43,53},{1,3,14,22,24,29,32,35,39,45,46,49,50,56,59,61,62,63,64,65,66,67},{7,10,12,17,30,31,40,42,48,54},{2,8,21,25,27,28,33,38,41,44,47,51,52,55,57,58,60}];
class_teachers=[{1},{1},{1},{1},{2},{2},{2},{2,3},{2},{2,3},{2,3,4},{2,3,4},{2,3},{5},{5,6},{5,6},{5,6},{5,6,7},{5,6,7},{5,6,7},{10},{10},{9},{9},{9},{10},{8},{8},{8},{8},{7},{7},{7},{11},{11},{11},{7,11,12},{7,11,12},{7,11,12},{10},{10},{10},{10},{10},{10}];
class_rooms=[{3,4,5},{3,4,5},{3,4,5},{1,2},{1,2},{3,4},{3,5},{6,7},{7,8},{6,7,8},{6,7},{7,8},{7,8},{1,2},{6,7,8},{6,7,8},{6,7,8},{6,7,8},{6,7,8},{6,7,8},{1,2},{6,7,8},{6,7,8},{6,7,8},{6,7,8},{1,2},{3,4,5},{6,7,8},{6,7,8},{6,7,8},{1,2},{6,7,8},{6,7,8},{1,2},{3,4,5},{3,4,5},{6,7,8},{6,7,8},{6,7,8},{1,2},{6,7,8},{6,7,8},{6,7,8},{6,7,8},{6,7,8}];
class_groups=[{1},{3,4},{2},{1,2,3,4},{1,2,3,4},{1,2},{3,4},{1},{3,4},{2},{1},{3,4},{2},{1,2,3,4},{1},{3,4},{2},{1},{3,4},{2},{3},{3},{1,2},{1},{2},{2,3,4},{2,3,4},{2},{3},{4},{1,4},{1},{4},{1,2,3,4},{1,2},{3,4},{1},{3,4},{2},{1,2,3,4},{1,2},{3,4},{1},{3,4},{2}];
session_dailyslot=array2d(1..nr_classes,1..max_part_sessions,[0,0,0,0,0,0,0,0,-1,-1,-1,-1,0,0,0,0,0,0,0,0,-1,-1,-1,-1,0,0,0,0,0,0,0,0,-1,-1,-1,-1,0,-1,-1,-1,-1,-1,-1,-1,-1,-1,-1,-1,0,0,0,0,0,0,0,0,-1,-1,-1,-1,0,0,0,0,0,0,0,0,0,-1,-1,-1,0,0,0,0,0,0,0,0,0,-1,-1,-1,0,0,0,0,0,0,0,-1,-1,-1,-1,-1,0,0,0,0,0,0,0,-1,-1,-1,-1,-1,0,0,0,0,0,0,0,-1,-1,-1,-1,-1,0,-1,-1,-1,-1,-1,-1,-1,-1,-1,-1,-1,0,-1,-1,-1,-1,-1,-1,-1,-1,-1,-1,-1,0,-1,-1,-1,-1,-1,-1,-1,-1,-1,-1,-1,0,0,0,0,0,0,0,0,0,0,0,0,0,0,0,0,0,0,0,0,-1,-1,-1,-1,0,0,0,0,0,0,0,0,-1,-1,-1,-1,0,0,0,0,0,0,0,0,-1,-1,-1,-1,0,-1,-1,-1,-1,-1,-1,-1,-1,-1,-1,-1,0,-1,-1,-1,-1,-1,-1,-1,-1,-1,-1,-1,0,-1,-1,-1,-1,-1,-1,-1,-1,-1,-1,-1,0,0,0,-1,-1,-1,-1,-1,-1,-1,-1,-1,0,0,0,0,0,0,0,0,-1,-1,-1,-1,0,0,0,0,0,-1,-1,-1,-1,-1,-1,-1,0,0,0,0,-1,-1,-1,-1,-1,-1,-1,-1,0,0,0,0,-1,-1,-1,-1,-1,-1,-1,-1,0,0,-1,-1,-1,-1,-1,-1,-1,-1,-1,-1,0,0,-1,-1,-1,-1,-1,-1,-1,-1,-1,-1,0,0,0,0,0,0,0,0,0,0,-1,-1,0,0,0,0,0,0,0,0,0,0,-1,-1,0,0,0,0,0,0,0,0,0,0,-1,-1,0,0,0,0,-1,-1,-1,-1,-1,-1,-1,-1,0,0,0,0,0,0,0,-1,-1,-1,-1,-1,0,0,0,0,0,0,0,-1,-1,-1,-1,-1,0,0,0,0,0,0,0,-1,-1,-1,-1,-1,0,0,0,0,-1,-1,-1,-1,-1,-1,-1,-1,0,0,0,0,-1,-1,-1,-1,-1,-1,-1,-1,0,0,0,0,-1,-1,-1,-1,-1,-1,-1,-1,0,0,0,0,-1,-1,-1,-1,-1,-1,-1,-1,0,0,0,0,-1,-1,-1,-1,-1,-1,-1,-1,0,0,0,0,0,0,-1,-1,-1,-1,-1,-1,0,0,0,-1,-1,-1,-1,-1,-1,-1,-1,-1,0,0,0,-1,-1,-1,-1,-1,-1,-1,-1,-1,0,0,0,0,-1,-1,-1,-1,-1,-1,-1,-1,0,0,0,0,-1,-1,-1,-1,-1,-1,-1,-1,0,0,0,0,-1,-1,-1,-1,-1,-1,-1,-1]);
session_day=array2d(1..nr_classes,1..max_part_sessions,[0,0,0,0,0,0,0,0,-1,-1,-1,-1,0,0,0,0,0,0,0,0,-1,-1,-1,-1,0,0,0,0,0,0,0,0,-1,-1,-1,-1,0,-1,-1,-1,-1,-1,-1,-1,-1,-1,-1,-1,0,0,0,0,0,0,0,0,-1,-1,-1,-1,0,0,0,0,0,0,0,0,0,-1,-1,-1,0,0,0,0,0,0,0,0,0,-1,-1,-1,0,0,0,0,0,0,0,-1,-1,-1,-1,-1,0,0,0,0,0,0,0,-1,-1,-1,-1,-1,0,0,0,0,0,0,0,-1,-1,-1,-1,-1,0,-1,-1,-1,-1,-1,-1,-1,-1,-1,-1,-1,0,-1,-1,-1,-1,-1,-1,-1,-1,-1,-1,-1,0,-1,-1,-1,-1,-1,-1,-1,-1,-1,-1,-1,0,0,0,0,0,0,0,0,0,0,0,0,0,0,0,0,0,0,0,0,-1,-1,-1,-1,0,0,0,0,0,0,0,0,-1,-1,-1,-1,0,0,0,0,0,0,0,0,-1,-1,-1,-1,0,-1,-1,-1,-1,-1,-1,-1,-1,-1,-1,-1,0,-1,-1,-1,-1,-1,-1,-1,-1,-1,-1,-1,0,-1,-1,-1,-1,-1,-1,-1,-1,-1,-1,-1,0,0,0,-1,-1,-1,-1,-1,-1,-1,-1,-1,0,0,0,0,0,0,0,0,-1,-1,-1,-1,0,0,0,0,0,-1,-1,-1,-1,-1,-1,-1,0,0,0,0,-1,-1,-1,-1,-1,-1,-1,-1,0,0,0,0,-1,-1,-1,-1,-1,-1,-1,-1,0,0,-1,-1,-1,-1,-1,-1,-1,-1,-1,-1,0,0,-1,-1,-1,-1,-1,-1,-1,-1,-1,-1,0,0,0,0,0,0,0,0,0,0,-1,-1,0,0,0,0,0,0,0,0,0,0,-1,-1,0,0,0,0,0,0,0,0,0,0,-1,-1,0,0,0,0,-1,-1,-1,-1,-1,-1,-1,-1,0,0,0,0,0,0,0,-1,-1,-1,-1,-1,0,0,0,0,0,0,0,-1,-1,-1,-1,-1,0,0,0,0,0,0,0,-1,-1,-1,-1,-1,0,0,0,0,-1,-1,-1,-1,-1,-1,-1,-1,0,0,0,0,-1,-1,-1,-1,-1,-1,-1,-1,0,0,0,0,-1,-1,-1,-1,-1,-1,-1,-1,0,0,0,0,-1,-1,-1,-1,-1,-1,-1,-1,0,0,0,0,-1,-1,-1,-1,-1,-1,-1,-1,0,0,0,0,0,0,-1,-1,-1,-1,-1,-1,0,0,0,-1,-1,-1,-1,-1,-1,-1,-1,-1,0,0,0,-1,-1,-1,-1,-1,-1,-1,-1,-1,0,0,0,0,-1,-1,-1,-1,-1,-1,-1,-1,0,0,0,0,-1,-1,-1,-1,-1,-1,-1,-1,0,0,0,0,-1,-1,-1,-1,-1,-1,-1,-1]);
session_week=array2d(1..nr_classes,1..max_part_sessions,[0,0,0,0,0,0,0,0,-1,-1,-1,-1,0,0,0,0,0,0,0,0,-1,-1,-1,-1,0,0,0,0,0,0,0,0,-1,-1,-1,-1,0,-1,-1,-1,-1,-1,-1,-1,-1,-1,-1,-1,0,0,0,0,0,0,0,0,-1,-1,-1,-1,0,0,0,0,0,0,0,0,0,-1,-1,-1,0,0,0,0,0,0,0,0,0,-1,-1,-1,0,0,0,0,0,0,0,-1,-1,-1,-1,-1,0,0,0,0,0,0,0,-1,-1,-1,-1,-1,0,0,0,0,0,0,0,-1,-1,-1,-1,-1,0,-1,-1,-1,-1,-1,-1,-1,-1,-1,-1,-1,0,-1,-1,-1,-1,-1,-1,-1,-1,-1,-1,-1,0,-1,-1,-1,-1,-1,-1,-1,-1,-1,-1,-1,0,0,0,0,0,0,0,0,0,0,0,0,0,0,0,0,0,0,0,0,-1,-1,-1,-1,0,0,0,0,0,0,0,0,-1,-1,-1,-1,0,0,0,0,0,0,0,0,-1,-1,-1,-1,0,-1,-1,-1,-1,-1,-1,-1,-1,-1,-1,-1,0,-1,-1,-1,-1,-1,-1,-1,-1,-1,-1,-1,0,-1,-1,-1,-1,-1,-1,-1,-1,-1,-1,-1,0,0,0,-1,-1,-1,-1,-1,-1,-1,-1,-1,0,0,0,0,0,0,0,0,-1,-1,-1,-1,0,0,0,0,0,-1,-1,-1,-1,-1,-1,-1,0,0,0,0,-1,-1,-1,-1,-1,-1,-1,-1,0,0,0,0,-1,-1,-1,-1,-1,-1,-1,-1,0,0,-1,-1,-1,-1,-1,-1,-1,-1,-1,-1,0,0,-1,-1,-1,-1,-1,-1,-1,-1,-1,-1,0,0,0,0,0,0,0,0,0,0,-1,-1,0,0,0,0,0,0,0,0,0,0,-1,-1,0,0,0,0,0,0,0,0,0,0,-1,-1,0,0,0,0,-1,-1,-1,-1,-1,-1,-1,-1,0,0,0,0,0,0,0,-1,-1,-1,-1,-1,0,0,0,0,0,0,0,-1,-1,-1,-1,-1,0,0,0,0,0,0,0,-1,-1,-1,-1,-1,0,0,0,0,-1,-1,-1,-1,-1,-1,-1,-1,0,0,0,0,-1,-1,-1,-1,-1,-1,-1,-1,0,0,0,0,-1,-1,-1,-1,-1,-1,-1,-1,0,0,0,0,-1,-1,-1,-1,-1,-1,-1,-1,0,0,0,0,-1,-1,-1,-1,-1,-1,-1,-1,0,0,0,0,0,0,-1,-1,-1,-1,-1,-1,0,0,0,-1,-1,-1,-1,-1,-1,-1,-1,-1,0,0,0,-1,-1,-1,-1,-1,-1,-1,-1,-1,0,0,0,0,-1,-1,-1,-1,-1,-1,-1,-1,0,0,0,0,-1,-1,-1,-1,-1,-1,-1,-1,0,0,0,0,-1,-1,-1,-1,-1,-1,-1,-1]);
session_rooms=array2d(1..nr_classes,1..max_part_sessions,[{0},{0},{0},{0},{0},{0},{0},{0},{-1},{-1},{-1},{-1},{0},{0},{0},{0},{0},{0},{0},{0},{-1},{-1},{-1},{-1},{0},{0},{0},{0},{0},{0},{0},{0},{-1},{-1},{-1},{-1},{0},{-1},{-1},{-1},{-1},{-1},{-1},{-1},{-1},{-1},{-1},{-1},{0},{0},{0},{0},{0},{0},{0},{0},{-1},{-1},{-1},{-1},{0},{0},{0},{0},{0},{0},{0},{0},{0},{-1},{-1},{-1},{0},{0},{0},{0},{0},{0},{0},{0},{0},{-1},{-1},{-1},{0},{0},{0},{0},{0},{0},{0},{-1},{-1},{-1},{-1},{-1},{0},{0},{0},{0},{0},{0},{0},{-1},{-1},{-1},{-1},{-1},{0},{0},{0},{0},{0},{0},{0},{-1},{-1},{-1},{-1},{-1},{0},{-1},{-1},{-1},{-1},{-1},{-1},{-1},{-1},{-1},{-1},{-1},{0},{-1},{-1},{-1},{-1},{-1},{-1},{-1},{-1},{-1},{-1},{-1},{0},{-1},{-1},{-1},{-1},{-1},{-1},{-1},{-1},{-1},{-1},{-1},{0},{0},{0},{0},{0},{0},{0},{0},{0},{0},{0},{0},{0},{0},{0},{0},{0},{0},{0},{0},{-1},{-1},{-1},{-1},{0},{0},{0},{0},{0},{0},{0},{0},{-1},{-1},{-1},{-1},{0},{0},{0},{0},{0},{0},{0},{0},{-1},{-1},{-1},{-1},{0},{-1},{-1},{-1},{-1},{-1},{-1},{-1},{-1},{-1},{-1},{-1},{0},{-1},{-1},{-1},{-1},{-1},{-1},{-1},{-1},{-1},{-1},{-1},{0},{-1},{-1},{-1},{-1},{-1},{-1},{-1},{-1},{-1},{-1},{-1},{0},{0},{0},{-1},{-1},{-1},{-1},{-1},{-1},{-1},{-1},{-1},{0},{0},{0},{0},{0},{0},{0},{0},{-1},{-1},{-1},{-1},{0},{0},{0},{0},{0},{-1},{-1},{-1},{-1},{-1},{-1},{-1},{0},{0},{0},{0},{-1},{-1},{-1},{-1},{-1},{-1},{-1},{-1},{0},{0},{0},{0},{-1},{-1},{-1},{-1},{-1},{-1},{-1},{-1},{0},{0},{-1},{-1},{-1},{-1},{-1},{-1},{-1},{-1},{-1},{-1},{0},{0},{-1},{-1},{-1},{-1},{-1},{-1},{-1},{-1},{-1},{-1},{0},{0},{0},{0},{0},{0},{0},{0},{0},{0},{-1},{-1},{0},{0},{0},{0},{0},{0},{0},{0},{0},{0},{-1},{-1},{0},{0},{0},{0},{0},{0},{0},{0},{0},{0},{-1},{-1},{0},{0},{0},{0},{-1},{-1},{-1},{-1},{-1},{-1},{-1},{-1},{0},{0},{0},{0},{0},{0},{0},{-1},{-1},{-1},{-1},{-1},{0},{0},{0},{0},{0},{0},{0},{-1},{-1},{-1},{-1},{-1},{0},{0},{0},{0},{0},{0},{0},{-1},{-1},{-1},{-1},{-1},{0},{0},{0},{0},{-1},{-1},{-1},{-1},{-1},{-1},{-1},{-1},{0},{0},{0},{0},{-1},{-1},{-1},{-1},{-1},{-1},{-1},{-1},{0},{0},{0},{0},{-1},{-1},{-1},{-1},{-1},{-1},{-1},{-1},{0},{0},{0},{0},{-1},{-1},{-1},{-1},{-1},{-1},{-1},{-1},{0},{0},{0},{0},{-1},{-1},{-1},{-1},{-1},{-1},{-1},{-1},{0},{0},{0},{0},{0},{0},{-1},{-1},{-1},{-1},{-1},{-1},{0},{0},{0},{-1},{-1},{-1},{-1},{-1},{-1},{-1},{-1},{-1},{0},{0},{0},{-1},{-1},{-1},{-1},{-1},{-1},{-1},{-1},{-1},{0},{0},{0},{0},{-1},{-1},{-1},{-1},{-1},{-1},{-1},{-1},{0},{0},{0},{0},{-1},{-1},{-1},{-1},{-1},{-1},{-1},{-1},{0},{0},{0},{0},{-1},{-1},{-1},{-1},{-1},{-1},{-1},{-1}]);
session_teachers=array2d(1..nr_classes,1..max_part_sessions,[{0},{0},{0},{0},{0},{0},{0},{0},{-1},{-1},{-1},{-1},{0},{0},{0},{0},{0},{0},{0},{0},{-1},{-1},{-1},{-1},{0},{0},{0},{0},{0},{0},{0},{0},{-1},{-1},{-1},{-1},{0},{-1},{-1},{-1},{-1},{-1},{-1},{-1},{-1},{-1},{-1},{-1},{0},{0},{0},{0},{0},{0},{0},{0},{-1},{-1},{-1},{-1},{0},{0},{0},{0},{0},{0},{0},{0},{0},{-1},{-1},{-1},{0},{0},{0},{0},{0},{0},{0},{0},{0},{-1},{-1},{-1},{0},{0},{0},{0},{0},{0},{0},{-1},{-1},{-1},{-1},{-1},{0},{0},{0},{0},{0},{0},{0},{-1},{-1},{-1},{-1},{-1},{0},{0},{0},{0},{0},{0},{0},{-1},{-1},{-1},{-1},{-1},{0},{-1},{-1},{-1},{-1},{-1},{-1},{-1},{-1},{-1},{-1},{-1},{0},{-1},{-1},{-1},{-1},{-1},{-1},{-1},{-1},{-1},{-1},{-1},{0},{-1},{-1},{-1},{-1},{-1},{-1},{-1},{-1},{-1},{-1},{-1},{0},{0},{0},{0},{0},{0},{0},{0},{0},{0},{0},{0},{0},{0},{0},{0},{0},{0},{0},{0},{-1},{-1},{-1},{-1},{0},{0},{0},{0},{0},{0},{0},{0},{-1},{-1},{-1},{-1},{0},{0},{0},{0},{0},{0},{0},{0},{-1},{-1},{-1},{-1},{0},{-1},{-1},{-1},{-1},{-1},{-1},{-1},{-1},{-1},{-1},{-1},{0},{-1},{-1},{-1},{-1},{-1},{-1},{-1},{-1},{-1},{-1},{-1},{0},{-1},{-1},{-1},{-1},{-1},{-1},{-1},{-1},{-1},{-1},{-1},{0},{0},{0},{-1},{-1},{-1},{-1},{-1},{-1},{-1},{-1},{-1},{0},{0},{0},{0},{0},{0},{0},{0},{-1},{-1},{-1},{-1},{0},{0},{0},{0},{0},{-1},{-1},{-1},{-1},{-1},{-1},{-1},{0},{0},{0},{0},{-1},{-1},{-1},{-1},{-1},{-1},{-1},{-1},{0},{0},{0},{0},{-1},{-1},{-1},{-1},{-1},{-1},{-1},{-1},{0},{0},{-1},{-1},{-1},{-1},{-1},{-1},{-1},{-1},{-1},{-1},{0},{0},{-1},{-1},{-1},{-1},{-1},{-1},{-1},{-1},{-1},{-1},{0},{0},{0},{0},{0},{0},{0},{0},{0},{0},{-1},{-1},{0},{0},{0},{0},{0},{0},{0},{0},{0},{0},{-1},{-1},{0},{0},{0},{0},{0},{0},{0},{0},{0},{0},{-1},{-1},{0},{0},{0},{0},{-1},{-1},{-1},{-1},{-1},{-1},{-1},{-1},{0},{0},{0},{0},{0},{0},{0},{-1},{-1},{-1},{-1},{-1},{0},{0},{0},{0},{0},{0},{0},{-1},{-1},{-1},{-1},{-1},{0},{0},{0},{0},{0},{0},{0},{-1},{-1},{-1},{-1},{-1},{0},{0},{0},{0},{-1},{-1},{-1},{-1},{-1},{-1},{-1},{-1},{0},{0},{0},{0},{-1},{-1},{-1},{-1},{-1},{-1},{-1},{-1},{0},{0},{0},{0},{-1},{-1},{-1},{-1},{-1},{-1},{-1},{-1},{0},{0},{0},{0},{-1},{-1},{-1},{-1},{-1},{-1},{-1},{-1},{0},{0},{0},{0},{-1},{-1},{-1},{-1},{-1},{-1},{-1},{-1},{0},{0},{0},{0},{0},{0},{-1},{-1},{-1},{-1},{-1},{-1},{0},{0},{0},{-1},{-1},{-1},{-1},{-1},{-1},{-1},{-1},{-1},{0},{0},{0},{-1},{-1},{-1},{-1},{-1},{-1},{-1},{-1},{-1},{0},{0},{0},{0},{-1},{-1},{-1},{-1},{-1},{-1},{-1},{-1},{0},{0},{0},{0},{-1},{-1},{-1},{-1},{-1},{-1},{-1},{-1},{0},{0},{0},{0},{-1},{-1},{-1},{-1},{-1},{-1},{-1},{-1}]);
